32	0

0	1	2
4	2	3	4
3	1	5
7	1	5
3	1	6
8	2	7	8
9	1	9
8	1	9
1	1	10
1	1	11
2	1	12
2	1	13
7	1	14
6	1	15
7	1	16
10	1	17
8	1	18
5	1	19
10	1	20
5	1	21
4	1	22
4	1	23
4	1	24
9	1	25
10	1	26
2	1	27
5	1	28
1	1	29
6	2	30	31
4	1	32
3	1	32
0	0
